c File: flat50_3_0.col
c
c SOURCE: Joseph Culberson (joe@cs.ualberta.ca)
c DESCRIPTION: Quasi-random coloring problem
c              generated with flatness = 0
c                             probability = 0.139
c                             known coloring = 3
c                             random seed = 1031
c              Creation Date:  Tue Jun  9 11:59:31 1998
c Maximum degree = 8 Minimum degree = 1
c p edge 50 115
c cnf created by edge2cnf
p cnf 150 545
-1 -2 0
-1 -3 0
-2 -3 0
1 2 3 0
-4 -5 0
-4 -6 0
-5 -6 0
4 5 6 0
-7 -8 0
-7 -9 0
-8 -9 0
7 8 9 0
-10 -11 0
-10 -12 0
-11 -12 0
10 11 12 0
-13 -14 0
-13 -15 0
-14 -15 0
13 14 15 0
-16 -17 0
-16 -18 0
-17 -18 0
16 17 18 0
-19 -20 0
-19 -21 0
-20 -21 0
19 20 21 0
-22 -23 0
-22 -24 0
-23 -24 0
22 23 24 0
-25 -26 0
-25 -27 0
-26 -27 0
25 26 27 0
-28 -29 0
-28 -30 0
-29 -30 0
28 29 30 0
-31 -32 0
-31 -33 0
-32 -33 0
31 32 33 0
-34 -35 0
-34 -36 0
-35 -36 0
34 35 36 0
-37 -38 0
-37 -39 0
-38 -39 0
37 38 39 0
-40 -41 0
-40 -42 0
-41 -42 0
40 41 42 0
-43 -44 0
-43 -45 0
-44 -45 0
43 44 45 0
-46 -47 0
-46 -48 0
-47 -48 0
46 47 48 0
-49 -50 0
-49 -51 0
-50 -51 0
49 50 51 0
-52 -53 0
-52 -54 0
-53 -54 0
52 53 54 0
-55 -56 0
-55 -57 0
-56 -57 0
55 56 57 0
-58 -59 0
-58 -60 0
-59 -60 0
58 59 60 0
-61 -62 0
-61 -63 0
-62 -63 0
61 62 63 0
-64 -65 0
-64 -66 0
-65 -66 0
64 65 66 0
-67 -68 0
-67 -69 0
-68 -69 0
67 68 69 0
-70 -71 0
-70 -72 0
-71 -72 0
70 71 72 0
-73 -74 0
-73 -75 0
-74 -75 0
73 74 75 0
-76 -77 0
-76 -78 0
-77 -78 0
76 77 78 0
-79 -80 0
-79 -81 0
-80 -81 0
79 80 81 0
-82 -83 0
-82 -84 0
-83 -84 0
82 83 84 0
-85 -86 0
-85 -87 0
-86 -87 0
85 86 87 0
-88 -89 0
-88 -90 0
-89 -90 0
88 89 90 0
-91 -92 0
-91 -93 0
-92 -93 0
91 92 93 0
-94 -95 0
-94 -96 0
-95 -96 0
94 95 96 0
-97 -98 0
-97 -99 0
-98 -99 0
97 98 99 0
-100 -101 0
-100 -102 0
-101 -102 0
100 101 102 0
-103 -104 0
-103 -105 0
-104 -105 0
103 104 105 0
-106 -107 0
-106 -108 0
-107 -108 0
106 107 108 0
-109 -110 0
-109 -111 0
-110 -111 0
109 110 111 0
-112 -113 0
-112 -114 0
-113 -114 0
112 113 114 0
-115 -116 0
-115 -117 0
-116 -117 0
115 116 117 0
-118 -119 0
-118 -120 0
-119 -120 0
118 119 120 0
-121 -122 0
-121 -123 0
-122 -123 0
121 122 123 0
-124 -125 0
-124 -126 0
-125 -126 0
124 125 126 0
-127 -128 0
-127 -129 0
-128 -129 0
127 128 129 0
-130 -131 0
-130 -132 0
-131 -132 0
130 131 132 0
-133 -134 0
-133 -135 0
-134 -135 0
133 134 135 0
-136 -137 0
-136 -138 0
-137 -138 0
136 137 138 0
-139 -140 0
-139 -141 0
-140 -141 0
139 140 141 0
-142 -143 0
-142 -144 0
-143 -144 0
142 143 144 0
-145 -146 0
-145 -147 0
-146 -147 0
145 146 147 0
-148 -149 0
-148 -150 0
-149 -150 0
148 149 150 0
-70 -1 0
-71 -2 0
-72 -3 0
-76 -1 0
-77 -2 0
-78 -3 0
-91 -1 0
-92 -2 0
-93 -3 0
-94 -1 0
-95 -2 0
-96 -3 0
-106 -1 0
-107 -2 0
-108 -3 0
-58 -4 0
-59 -5 0
-60 -6 0
-88 -4 0
-89 -5 0
-90 -6 0
-97 -4 0
-98 -5 0
-99 -6 0
-130 -4 0
-131 -5 0
-132 -6 0
-52 -7 0
-53 -8 0
-54 -9 0
-67 -7 0
-68 -8 0
-69 -9 0
-121 -7 0
-122 -8 0
-123 -9 0
-142 -7 0
-143 -8 0
-144 -9 0
-55 -10 0
-56 -11 0
-57 -12 0
-67 -10 0
-68 -11 0
-69 -12 0
-88 -10 0
-89 -11 0
-90 -12 0
-100 -10 0
-101 -11 0
-102 -12 0
-112 -10 0
-113 -11 0
-114 -12 0
-121 -10 0
-122 -11 0
-123 -12 0
-148 -10 0
-149 -11 0
-150 -12 0
-52 -13 0
-53 -14 0
-54 -15 0
-55 -13 0
-56 -14 0
-57 -15 0
-70 -13 0
-71 -14 0
-72 -15 0
-79 -13 0
-80 -14 0
-81 -15 0
-136 -13 0
-137 -14 0
-138 -15 0
-142 -13 0
-143 -14 0
-144 -15 0
-106 -16 0
-107 -17 0
-108 -18 0
-115 -16 0
-116 -17 0
-117 -18 0
-145 -16 0
-146 -17 0
-147 -18 0
-148 -16 0
-149 -17 0
-150 -18 0
-55 -19 0
-56 -20 0
-57 -21 0
-58 -19 0
-59 -20 0
-60 -21 0
-64 -22 0
-65 -23 0
-66 -24 0
-82 -22 0
-83 -23 0
-84 -24 0
-100 -22 0
-101 -23 0
-102 -24 0
-121 -22 0
-122 -23 0
-123 -24 0
-124 -22 0
-125 -23 0
-126 -24 0
-127 -22 0
-128 -23 0
-129 -24 0
-148 -22 0
-149 -23 0
-150 -24 0
-100 -25 0
-101 -26 0
-102 -27 0
-115 -25 0
-116 -26 0
-117 -27 0
-139 -25 0
-140 -26 0
-141 -27 0
-76 -28 0
-77 -29 0
-78 -30 0
-79 -28 0
-80 -29 0
-81 -30 0
-97 -28 0
-98 -29 0
-99 -30 0
-133 -28 0
-134 -29 0
-135 -30 0
-70 -31 0
-71 -32 0
-72 -33 0
-121 -31 0
-122 -32 0
-123 -33 0
-145 -31 0
-146 -32 0
-147 -33 0
-70 -34 0
-71 -35 0
-72 -36 0
-112 -34 0
-113 -35 0
-114 -36 0
-115 -34 0
-116 -35 0
-117 -36 0
-139 -34 0
-140 -35 0
-141 -36 0
-142 -34 0
-143 -35 0
-144 -36 0
-97 -37 0
-98 -38 0
-99 -39 0
-124 -37 0
-125 -38 0
-126 -39 0
-133 -37 0
-134 -38 0
-135 -39 0
-145 -37 0
-146 -38 0
-147 -39 0
-67 -40 0
-68 -41 0
-69 -42 0
-79 -40 0
-80 -41 0
-81 -42 0
-85 -40 0
-86 -41 0
-87 -42 0
-100 -40 0
-101 -41 0
-102 -42 0
-133 -40 0
-134 -41 0
-135 -42 0
-82 -43 0
-83 -44 0
-84 -45 0
-85 -43 0
-86 -44 0
-87 -45 0
-112 -43 0
-113 -44 0
-114 -45 0
-127 -43 0
-128 -44 0
-129 -45 0
-142 -43 0
-143 -44 0
-144 -45 0
-145 -43 0
-146 -44 0
-147 -45 0
-58 -46 0
-59 -47 0
-60 -48 0
-73 -46 0
-74 -47 0
-75 -48 0
-94 -46 0
-95 -47 0
-96 -48 0
-58 -49 0
-59 -50 0
-60 -51 0
-67 -49 0
-68 -50 0
-69 -51 0
-118 -49 0
-119 -50 0
-120 -51 0
-133 -49 0
-134 -50 0
-135 -51 0
-136 -49 0
-137 -50 0
-138 -51 0
-139 -49 0
-140 -50 0
-141 -51 0
-145 -52 0
-146 -53 0
-147 -54 0
-103 -55 0
-104 -56 0
-105 -57 0
-127 -55 0
-128 -56 0
-129 -57 0
-133 -55 0
-134 -56 0
-135 -57 0
-142 -55 0
-143 -56 0
-144 -57 0
-130 -58 0
-131 -59 0
-132 -60 0
-133 -58 0
-134 -59 0
-135 -60 0
-148 -58 0
-149 -59 0
-150 -60 0
-115 -61 0
-116 -62 0
-117 -63 0
-121 -61 0
-122 -62 0
-123 -63 0
-139 -61 0
-140 -62 0
-141 -63 0
-103 -67 0
-104 -68 0
-105 -69 0
-130 -67 0
-131 -68 0
-132 -69 0
-148 -67 0
-149 -68 0
-150 -69 0
-124 -70 0
-125 -71 0
-126 -72 0
-118 -73 0
-119 -74 0
-120 -75 0
-130 -73 0
-131 -74 0
-132 -75 0
-145 -73 0
-146 -74 0
-147 -75 0
-148 -73 0
-149 -74 0
-150 -75 0
-112 -76 0
-113 -77 0
-114 -78 0
-115 -76 0
-116 -77 0
-117 -78 0
-118 -76 0
-119 -77 0
-120 -78 0
-121 -76 0
-122 -77 0
-123 -78 0
-106 -82 0
-107 -83 0
-108 -84 0
-127 -82 0
-128 -83 0
-129 -84 0
-142 -82 0
-143 -83 0
-144 -84 0
-145 -82 0
-146 -83 0
-147 -84 0
-139 -85 0
-140 -86 0
-141 -87 0
-106 -91 0
-107 -92 0
-108 -93 0
-109 -91 0
-110 -92 0
-111 -93 0
-118 -91 0
-119 -92 0
-120 -93 0
-148 -91 0
-149 -92 0
-150 -93 0
-103 -94 0
-104 -95 0
-105 -96 0
-145 -94 0
-146 -95 0
-147 -96 0
-124 -97 0
-125 -98 0
-126 -99 0
-121 -100 0
-122 -101 0
-123 -102 0
-133 -100 0
-134 -101 0
-135 -102 0
